42
39
97
27
150
116
53
27
46
16
32
29
24
37
61
90
20
0
60
125
48
29
0
0
61
59
20
131
14
36
81
0
39
32
50
13
11
30
85
0
165
0
20
60
11
16
16
0
151
60
174
51
34
93
58
72
14
49
30
24
12
109
24
104
50
27
24
11
49
23
31
84
50
0
28
75
58
14
19
24
94
0
81
174
96
0
15
10
69
0
30
35
100
180
0
63
25
23
13
19
